StringID   Type       x          y          demand     ReadyTime  DueDate    ServiceTime wp1    wp2    wp3  wp4
D0         d          40.0       50.0       0.0        0.0        240.0      0.0         8      9      10   11
S0         f          40.0       50.0       0.0        0.0        240.0      0.0         0.6    1      1    1
S1         f          73.0       52.0       0.0        0.0        240.0      0.0         0.6    1      1    1
S2         f          90.0       55.0       0.0        0.0        240.0      0.0         0.6    1      1    1
S3         f          55.0       79.0       0.0        0.0        240.0      0.0         0.2    0.3    0.3  0.3
S4         f          69.0       89.0       0.0        0.0        240.0      0.0         0.2    0.3    0.3  0.3
S5         f          32.0       80.0       0.0        0.0        240.0      0.0         0.2    0.3    0.3  0.3
S6         f          39.0       96.0       0.0        0.0        240.0      0.0         0.6    1      1    1
S7         f          23.0       80.0       0.0        0.0        240.0      0.0         0.2    0.3    0.3  0.3
S8         f          4.0        83.0       0.0        0.0        240.0      0.0         0.2    0.3    0.3  0.3
S9         f          18.0       58.0       0.0        0.0        240.0      0.0         0.6    1      1    1
S10        f          1.0        56.0       0.0        0.0        240.0      0.0         0.6    1      1    1
S11        f          13.0       31.0       0.0        0.0        240.0      0.0         0.6    1      1    1
S12        f          -5.0       38.0       0.0        0.0        240.0      0.0         0.6    1      1    1
S13        f          26.0       37.0       0.0        0.0        240.0      0.0         0.6    1      1    1
S14        f          28.0       13.0       0.0        0.0        240.0      0.0         0.2    0.3    0.3  0.3
S15        f          39.0       31.0       0.0        0.0        240.0      0.0         0.6    1      1    1
S16        f          48.0       11.0       0.0        0.0        240.0      0.0         0.2    0.3    0.3  0.3
S17        f          59.0       17.0       0.0        0.0        240.0      0.0         0.2    0.3    0.3  0.3
S18        f          73.0       23.0       0.0        0.0        240.0      0.0         0.6    1      1    1
S19        f          74.0       32.0       0.0        0.0        240.0      0.0         0.2    0.3    0.3  0.3
S20        f          90.0       44.0       0.0        0.0        240.0      0.0         0.2    0.3    0.3  0.3
C1         c          25.0       85.0       20.0       161.0      191.0      10.0       
C2         c          22.0       75.0       30.0       0.0        199.0      10.0       
C3         c          22.0       85.0       10.0       113.0      143.0      10.0       
C4         c          20.0       80.0       40.0       61.0       91.0       10.0       
C5         c          20.0       85.0       20.0       0.0        189.0      10.0       
C6         c          18.0       75.0       20.0       105.0      135.0      10.0       
C7         c          15.0       75.0       20.0       102.0      132.0      10.0       
C8         c          15.0       80.0       10.0       95.0       125.0      10.0       
C9         c          10.0       35.0       20.0       0.0        196.0      10.0       
C10        c          10.0       40.0       30.0       0.0        198.0      10.0       
C11        c          8.0        40.0       40.0       86.0       116.0      10.0       
C12        c          8.0        45.0       20.0       111.0      141.0      10.0       
C13        c          5.0        35.0       10.0       0.0        191.0      10.0       
C14        c          5.0        45.0       10.0       36.0       66.0       10.0       
C15        c          2.0        40.0       20.0       103.0      133.0      10.0       
C16        c          0.0        40.0       20.0       154.0      184.0      10.0       
C17        c          0.0        45.0       20.0       159.0      189.0      10.0       
C39        c          60.0       80.0       10.0       100.0      130.0      10.0       
C40        c          60.0       85.0       30.0       157.0      187.0      10.0       
C41        c          58.0       75.0       20.0       110.0      140.0      10.0       
C42        c          55.0       80.0       10.0       34.0       64.0       10.0        
C97        c          4.0        18.0       35.0       0.0        181.0      10.0       
C98        c          26.0       52.0       9.0        0.0        215.0      10.0       
C99        c          26.0       35.0       15.0       51.0       81.0       10.0       
C100       c          31.0       67.0       3.0        0.0        210.0      10.0       

F Vehicle fuel tank capacity /12/
Q Vehicle load capacity /200.0/
r fuel consumption rate /0.155/
g inverse refueling rate /0.5/
v average Velocity /1.0/
